Grasp exp. instance_n_20_m_5_id_2.lp tipoLifted 0 szPool 5 nIteration 100 alpha 0.6 
Academic license - for non-commercial use only
Read LP format model from file ../input/instancesGenerated/instance_n_20_m_5_id_2.lp
Reading time = 0.00 seconds
: 5 rows, 20 columns, 100 nonzeros
Optimize a model with 5 rows, 20 columns and 100 nonzeros
Variable types: 0 continuous, 20 integer (20 binary)
Coefficient statistics:
  Matrix range     [1e+00, 1e+01]
  Objective range  [1e+00, 1e+01]
  Bounds range     [1e+00, 1e+00]
  RHS range        [5e+01, 6e+01]
Found heuristic solution: objective 68.0000000

Explored 0 nodes (0 simplex iterations) in 0.00 seconds
Thread count was 1 (of 8 available processors)

Solution count 1: 68 
No other solutions better than 0

Solution limit reached
Best objective 6.800000000000e+01, best bound -, gap -
C_1:	 4.00 x_1  = 1.000000 + 9.00 x_2  = 0.000000 + 5.00 x_3  = 1.000000 + 10.00 x_4  = 0.000000 + 5.00 x_5  = 0.000000 + 4.00 x_6  = 1.000000 + 4.00 x_7  = 1.000000 + 2.00 x_8  = 1.000000 + 3.00 x_9  = 0.308131 + 1.00 x_10  = 0.196862 + 7.00 x_11  = 1.000000 + 4.00 x_12  = 1.000000 + 10.00 x_13  = 0.299572 + 6.00 x_14  = 0.000000 + 1.00 x_15  = 0.883024 + 10.00 x_16  = 1.000000 + 6.00 x_17  = 1.000000 + 9.00 x_18  = 0.000000 + 1.00 x_19  = 0.000000 + 2.00 x_20  = 0.000000 <= 51.00
C_2:	 6.00 x_1  = 1.000000 + 10.00 x_2  = 0.000000 + 10.00 x_3  = 1.000000 + 6.00 x_4  = 0.000000 + 8.00 x_5  = 0.000000 + 3.00 x_6  = 1.000000 + 6.00 x_7  = 1.000000 + 3.00 x_8  = 1.000000 + 6.00 x_9  = 0.308131 + 10.00 x_10  = 0.196862 + 7.00 x_11  = 1.000000 + 9.00 x_12  = 1.000000 + 1.00 x_13  = 0.299572 + 2.00 x_14  = 0.000000 + 1.00 x_15  = 0.883024 + 7.00 x_16  = 1.000000 + 7.00 x_17  = 1.000000 + 6.00 x_18  = 0.000000 + 9.00 x_19  = 0.000000 + 9.00 x_20  = 0.000000 <= 63.00
C_3:	 6.00 x_1  = 1.000000 + 7.00 x_2  = 0.000000 + 2.00 x_3  = 1.000000 + 5.00 x_4  = 0.000000 + 2.00 x_5  = 0.000000 + 4.00 x_6  = 1.000000 + 6.00 x_7  = 1.000000 + 9.00 x_8  = 1.000000 + 5.00 x_9  = 0.308131 + 6.00 x_10  = 0.196862 + 10.00 x_11  = 1.000000 + 2.00 x_12  = 1.000000 + 7.00 x_13  = 0.299572 + 9.00 x_14  = 0.000000 + 7.00 x_15  = 0.883024 + 4.00 x_16  = 1.000000 + 3.00 x_17  = 1.000000 + 3.00 x_18  = 0.000000 + 8.00 x_19  = 0.000000 + 9.00 x_20  = 0.000000 <= 57.00
C_4:	 4.00 x_1  = 1.000000 + 5.00 x_2  = 0.000000 + 9.00 x_3  = 1.000000 + 6.00 x_4  = 0.000000 + 8.00 x_5  = 0.000000 + 9.00 x_6  = 1.000000 + 3.00 x_7  = 1.000000 + 4.00 x_8  = 1.000000 + 4.00 x_9  = 0.308131 + 3.00 x_10  = 0.196862 + 4.00 x_11  = 1.000000 + 2.00 x_12  = 1.000000 + 9.00 x_13  = 0.299572 + 7.00 x_14  = 0.000000 + 8.00 x_15  = 0.883024 + 2.00 x_16  = 1.000000 + 2.00 x_17  = 1.000000 + 4.00 x_18  = 0.000000 + 1.00 x_19  = 0.000000 + 8.00 x_20  = 0.000000 <= 51.00
C_5:	 9.00 x_1  = 1.000000 + 2.00 x_2  = 0.000000 + 9.00 x_3  = 1.000000 + 6.00 x_4  = 0.000000 + 3.00 x_5  = 0.000000 + 6.00 x_6  = 1.000000 + 1.00 x_7  = 1.000000 + 5.00 x_8  = 1.000000 + 10.00 x_9  = 0.308131 + 9.00 x_10  = 0.196862 + 5.00 x_11  = 1.000000 + 5.00 x_12  = 1.000000 + 5.00 x_13  = 0.299572 + 4.00 x_14  = 0.000000 + 3.00 x_15  = 0.883024 + 2.00 x_16  = 1.000000 + 2.00 x_17  = 1.000000 + 5.00 x_18  = 0.000000 + 7.00 x_19  = 0.000000 + 8.00 x_20  = 0.000000 <= 53.00
Solution initial: 87.753210 
Number Constraints Used in Cover:5
GRASP Method!
Number cuts repeat: 0
value: 87.753210
Number Constraints Used in Cover:18
GRASP Method!
Number cuts repeat: 0
value: 87.753210
Number Constraints Used in Cover:33
GRASP Method!
Number cuts repeat: 0
value: 87.753210
Number Constraints Used in Cover:44
GRASP Method!
Number cuts repeat: 0
value: 87.753210
Number Constraints Used in Cover:52
GRASP Method!
Number cuts repeat: 0
value: 87.753210
Number Constraints Used in Cover:59
GRASP Method!
Number cuts repeat: 0
value: 87.753210
Number Constraints Used in Cover:71
GRASP Method!
Number cuts repeat: 0
value: 87.751269
Number Constraints Used in Cover:78
GRASP Method!
Number cuts repeat: 0
value: 87.751269
Number Constraints Used in Cover:86
GRASP Method!
Number cuts repeat: 0
value: 87.751269
Number Constraints Used in Cover:99
GRASP Method!
Number cuts repeat: 0
value: 87.751269
Number Constraints Used in Cover:109
GRASP Method!
Number cuts repeat: 0
value: 87.751269
Number Constraints Used in Cover:122
GRASP Method!
Number cuts repeat: 0
value: 87.751269
Number Constraints Used in Cover:140
GRASP Method!
Number cuts repeat: 0
value: 87.751269
Number Constraints Used in Cover:155
GRASP Method!
Number cuts repeat: 0
value: 87.751269
Number Constraints Used in Cover:173
GRASP Method!
Number cuts repeat: 0
value: 87.751269
Number Constraints Used in Cover:195
GRASP Method!
Number cuts repeat: 0
value: 87.751269
Number Constraints Used in Cover:205
GRASP Method!
Number cuts repeat: 0
value: 87.751269
Number Constraints Used in Cover:221
GRASP Method!
Number cuts repeat: 0
value: 87.751269
Number Constraints Used in Cover:242
GRASP Method!
Number cuts repeat: 0
value: 87.751269
Number Constraints Used in Cover:255
GRASP Method!
Number cuts repeat: 0
value: 87.751269
Number Constraints Used in Cover:269
GRASP Method!
Number cuts repeat: 0
value: 87.717518
Number Constraints Used in Cover:281
GRASP Method!
Number cuts repeat: 0
value: 87.717518
Number Constraints Used in Cover:298
GRASP Method!
Number cuts repeat: 0
value: 87.717518
Number Constraints Used in Cover:311
GRASP Method!
Number cuts repeat: 0
value: 87.717518
Number Constraints Used in Cover:321
GRASP Method!
Number cuts repeat: 0
value: 87.717518
Number Constraints Used in Cover:337
GRASP Method!
Number cuts repeat: 0
value: 87.717518
Number Constraints Used in Cover:347
GRASP Method!
Number cuts repeat: 0
value: 87.717518
Number Constraints Used in Cover:356
GRASP Method!
Number cuts repeat: 0
value: 87.717518
Number Constraints Used in Cover:367
GRASP Method!
Number cuts repeat: 0
value: 87.717518
Number Constraints Used in Cover:380
GRASP Method!
Number cuts repeat: 0
value: 87.717518
Number Constraints Used in Cover:388
GRASP Method!
Number cuts repeat: 0
value: 87.717518
Number Constraints Used in Cover:405
GRASP Method!
Number cuts repeat: 0
value: 87.717518
Number Constraints Used in Cover:420
GRASP Method!
Number cuts repeat: 0
value: 87.717518
Number Constraints Used in Cover:435
GRASP Method!
Number cuts repeat: 0
value: 87.717518
Number Constraints Used in Cover:446
GRASP Method!
Number cuts repeat: 0
value: 87.717518
Number Constraints Used in Cover:459
GRASP Method!
Number cuts repeat: 0
value: 87.717518
Number Constraints Used in Cover:464
GRASP Method!
Number cuts repeat: 0
value: 87.717518
Number Constraints Used in Cover:477
GRASP Method!
Number cuts repeat: 0
value: 87.717518
Number Constraints Used in Cover:484
GRASP Method!
Number cuts repeat: 0
value: 87.717518
Number Constraints Used in Cover:495
GRASP Method!
Number cuts repeat: 0
value: 87.717518
Number Constraints Used in Cover:510
GRASP Method!
Number cuts repeat: 0
value: 87.717518
Number Constraints Used in Cover:519
GRASP Method!
Number cuts repeat: 0
value: 87.717518
Number Constraints Used in Cover:524
GRASP Method!
Number cuts repeat: 0
value: 87.717518
Number Constraints Used in Cover:536
GRASP Method!
Number cuts repeat: 0
value: 87.717518
Number Constraints Used in Cover:543
GRASP Method!
Number cuts repeat: 0
value: 87.717518
Number Constraints Used in Cover:550
GRASP Method!
Number cuts repeat: 0
value: 87.717518
Number Constraints Used in Cover:560
GRASP Method!
Number cuts repeat: 0
value: 87.717518
Number Constraints Used in Cover:567
GRASP Method!
Number cuts repeat: 0
value: 87.717518
Number Constraints Used in Cover:577
GRASP Method!
Number cuts repeat: 0
value: 87.717518
Number Constraints Used in Cover:586
GRASP Method!
Number cuts repeat: 0
value: 87.717518
Number Constraints Used in Cover:596
GRASP Method!
Number cuts repeat: 0
value: 87.717518
Number Constraints Used in Cover:603
GRASP Method!
Number cuts repeat: 0
value: 87.717518
Number Constraints Used in Cover:606
GRASP Method!
Number cuts repeat: 0
value: 87.717518
Number Constraints Used in Cover:608
GRASP Method!
Number cuts repeat: 0
value: 87.717518
Number Constraints Used in Cover:615
GRASP Method!
Number cuts repeat: 0
value: 87.717518
Number Constraints Used in Cover:622
GRASP Method!
Number cuts repeat: 0
value: 87.717518
Number Constraints Used in Cover:629
GRASP Method!
Number cuts repeat: 0
value: 87.717518
Number Constraints Used in Cover:635
GRASP Method!
Number cuts repeat: 0
value: 87.717518
Number Constraints Used in Cover:638
GRASP Method!
Number cuts repeat: 0
value: 87.717518
Number Constraints Used in Cover:647
GRASP Method!
Number cuts repeat: 0
value: 87.717518
Number Constraints Used in Cover:651
GRASP Method!
Number cuts repeat: 0
value: 87.717518
Number Constraints Used in Cover:658
GRASP Method!
Number cuts repeat: 0
value: 87.717518
Number Constraints Used in Cover:665
GRASP Method!
Number cuts repeat: 0
value: 87.717518
Number Cuts Final: 669
